# vtk DataFile Version 5.1
vtk output
ASCII
DATASET UNSTRUCTURED_GRID
POINTS 8 float
0 0 0 1 0 0 1 1 0 
0 1 0 0 0 1 1 0 1 
1 1 1 0 1 1 
METADATA
INFORMATION 1
NAME L2_NORM_RANGE LOCATION vtkDataArray
DATA 2 0 1.73205 

CELLS 2 8
OFFSETS vtktypeint64
0 8 
CONNECTIVITY vtktypeint64
0 1 2 3 4 5 6 7 
CELL_TYPES 1
12

CELL_DATA 1
FIELD FieldData 1
Density 1 1 float
7850 
METADATA
INFORMATION 0

POINT_DATA 8
SCALARS Stress float
LOOKUP_TABLE default
10 20 30 25 15 35 40 30 
METADATA
INFORMATION 0

FIELD FieldData 1
Temperature 1 8 float
100 120 110 105 95 125 130 115 
METADATA
INFORMATION 0

